c File: flat200_3_0.col
c
c SOURCE: Joseph Culberson (joe@cs.ualberta.ca)
c DESCRIPTION: Quasi-random coloring problem
c              generated with flatness = 0
c                             probability = 0.036
c                             known coloring = 3
c                             random seed = 1017
c              Creation Date:  Wed Feb 24 10:39:38 1999
c Maximum degree = 8 Minimum degree = 0
c COLOR VERIFICATION: Using the permuted order
c under simple greedy yields the specified
c coloring number
c Color = 3 specified partitions = 3
c p edge 200 479
c cnf created by edge2cnf
p cnf 600 2237
-1 -2 0
-1 -3 0
-2 -3 0
1 2 3 0
-4 -5 0
-4 -6 0
-5 -6 0
4 5 6 0
-7 -8 0
-7 -9 0
-8 -9 0
7 8 9 0
-10 -11 0
-10 -12 0
-11 -12 0
10 11 12 0
-13 -14 0
-13 -15 0
-14 -15 0
13 14 15 0
-16 -17 0
-16 -18 0
-17 -18 0
16 17 18 0
-19 -20 0
-19 -21 0
-20 -21 0
19 20 21 0
-22 -23 0
-22 -24 0
-23 -24 0
22 23 24 0
-25 -26 0
-25 -27 0
-26 -27 0
25 26 27 0
-28 -29 0
-28 -30 0
-29 -30 0
28 29 30 0
-31 -32 0
-31 -33 0
-32 -33 0
31 32 33 0
-34 -35 0
-34 -36 0
-35 -36 0
34 35 36 0
-37 -38 0
-37 -39 0
-38 -39 0
37 38 39 0
-40 -41 0
-40 -42 0
-41 -42 0
40 41 42 0
-43 -44 0
-43 -45 0
-44 -45 0
43 44 45 0
-46 -47 0
-46 -48 0
-47 -48 0
46 47 48 0
-49 -50 0
-49 -51 0
-50 -51 0
49 50 51 0
-52 -53 0
-52 -54 0
-53 -54 0
52 53 54 0
-55 -56 0
-55 -57 0
-56 -57 0
55 56 57 0
-58 -59 0
-58 -60 0
-59 -60 0
58 59 60 0
-61 -62 0
-61 -63 0
-62 -63 0
61 62 63 0
-64 -65 0
-64 -66 0
-65 -66 0
64 65 66 0
-67 -68 0
-67 -69 0
-68 -69 0
67 68 69 0
-70 -71 0
-70 -72 0
-71 -72 0
70 71 72 0
-73 -74 0
-73 -75 0
-74 -75 0
73 74 75 0
-76 -77 0
-76 -78 0
-77 -78 0
76 77 78 0
-79 -80 0
-79 -81 0
-80 -81 0
79 80 81 0
-82 -83 0
-82 -84 0
-83 -84 0
82 83 84 0
-85 -86 0
-85 -87 0
-86 -87 0
85 86 87 0
-88 -89 0
-88 -90 0
-89 -90 0
88 89 90 0
-91 -92 0
-91 -93 0
-92 -93 0
91 92 93 0
-94 -95 0
-94 -96 0
-95 -96 0
94 95 96 0
-97 -98 0
-97 -99 0
-98 -99 0
97 98 99 0
-100 -101 0
-100 -102 0
-101 -102 0
100 101 102 0
-103 -104 0
-103 -105 0
-104 -105 0
103 104 105 0
-106 -107 0
-106 -108 0
-107 -108 0
106 107 108 0
-109 -110 0
-109 -111 0
-110 -111 0
109 110 111 0
-112 -113 0
-112 -114 0
-113 -114 0
112 113 114 0
-115 -116 0
-115 -117 0
-116 -117 0
115 116 117 0
-118 -119 0
-118 -120 0
-119 -120 0
118 119 120 0
-121 -122 0
-121 -123 0
-122 -123 0
121 122 123 0
-124 -125 0
-124 -126 0
-125 -126 0
124 125 126 0
-127 -128 0
-127 -129 0
-128 -129 0
127 128 129 0
-130 -131 0
-130 -132 0
-131 -132 0
130 131 132 0
-133 -134 0
-133 -135 0
-134 -135 0
133 134 135 0
-136 -137 0
-136 -138 0
-137 -138 0
136 137 138 0
-139 -140 0
-139 -141 0
-140 -141 0
139 140 141 0
-142 -143 0
-142 -144 0
-143 -144 0
142 143 144 0
-145 -146 0
-145 -147 0
-146 -147 0
145 146 147 0
-148 -149 0
-148 -150 0
-149 -150 0
148 149 150 0
-151 -152 0
-151 -153 0
-152 -153 0
151 152 153 0
-154 -155 0
-154 -156 0
-155 -156 0
154 155 156 0
-157 -158 0
-157 -159 0
-158 -159 0
157 158 159 0
-160 -161 0
-160 -162 0
-161 -162 0
160 161 162 0
-163 -164 0
-163 -165 0
-164 -165 0
163 164 165 0
-166 -167 0
-166 -168 0
-167 -168 0
166 167 168 0
-169 -170 0
-169 -171 0
-170 -171 0
169 170 171 0
-172 -173 0
-172 -174 0
-173 -174 0
172 173 174 0
-175 -176 0
-175 -177 0
-176 -177 0
175 176 177 0
-178 -179 0
-178 -180 0
-179 -180 0
178 179 180 0
-181 -182 0
-181 -183 0
-182 -183 0
181 182 183 0
-184 -185 0
-184 -186 0
-185 -186 0
184 185 186 0
-187 -188 0
-187 -189 0
-188 -189 0
187 188 189 0
-190 -191 0
-190 -192 0
-191 -192 0
190 191 192 0
-193 -194 0
-193 -195 0
-194 -195 0
193 194 195 0
-196 -197 0
-196 -198 0
-197 -198 0
196 197 198 0
-199 -200 0
-199 -201 0
-200 -201 0
199 200 201 0
-202 -203 0
-202 -204 0
-203 -204 0
202 203 204 0
-205 -206 0
-205 -207 0
-206 -207 0
205 206 207 0
-208 -209 0
-208 -210 0
-209 -210 0
208 209 210 0
-211 -212 0
-211 -213 0
-212 -213 0
211 212 213 0
-214 -215 0
-214 -216 0
-215 -216 0
214 215 216 0
-217 -218 0
-217 -219 0
-218 -219 0
217 218 219 0
-220 -221 0
-220 -222 0
-221 -222 0
220 221 222 0
-223 -224 0
-223 -225 0
-224 -225 0
223 224 225 0
-226 -227 0
-226 -228 0
-227 -228 0
226 227 228 0
-229 -230 0
-229 -231 0
-230 -231 0
229 230 231 0
-232 -233 0
-232 -234 0
-233 -234 0
232 233 234 0
-235 -236 0
-235 -237 0
-236 -237 0
235 236 237 0
-238 -239 0
-238 -240 0
-239 -240 0
238 239 240 0
-241 -242 0
-241 -243 0
-242 -243 0
241 242 243 0
-244 -245 0
-244 -246 0
-245 -246 0
244 245 246 0
-247 -248 0
-247 -249 0
-248 -249 0
247 248 249 0
-250 -251 0
-250 -252 0
-251 -252 0
250 251 252 0
-253 -254 0
-253 -255 0
-254 -255 0
253 254 255 0
-256 -257 0
-256 -258 0
-257 -258 0
256 257 258 0
-259 -260 0
-259 -261 0
-260 -261 0
259 260 261 0
-262 -263 0
-262 -264 0
-263 -264 0
262 263 264 0
-265 -266 0
-265 -267 0
-266 -267 0
265 266 267 0
-268 -269 0
-268 -270 0
-269 -270 0
268 269 270 0
-271 -272 0
-271 -273 0
-272 -273 0
271 272 273 0
-274 -275 0
-274 -276 0
-275 -276 0
274 275 276 0
-277 -278 0
-277 -279 0
-278 -279 0
277 278 279 0
-280 -281 0
-280 -282 0
-281 -282 0
280 281 282 0
-283 -284 0
-283 -285 0
-284 -285 0
283 284 285 0
-286 -287 0
-286 -288 0
-287 -288 0
286 287 288 0
-289 -290 0
-289 -291 0
-290 -291 0
289 290 291 0
-292 -293 0
-292 -294 0
-293 -294 0
292 293 294 0
-295 -296 0
-295 -297 0
-296 -297 0
295 296 297 0
-298 -299 0
-298 -300 0
-299 -300 0
298 299 300 0
-301 -302 0
-301 -303 0
-302 -303 0
301 302 303 0
-304 -305 0
-304 -306 0
-305 -306 0
304 305 306 0
-307 -308 0
-307 -309 0
-308 -309 0
307 308 309 0
-310 -311 0
-310 -312 0
-311 -312 0
310 311 312 0
-313 -314 0
-313 -315 0
-314 -315 0
313 314 315 0
-316 -317 0
-316 -318 0
-317 -318 0
316 317 318 0
-319 -320 0
-319 -321 0
-320 -321 0
319 320 321 0
-322 -323 0
-322 -324 0
-323 -324 0
322 323 324 0
-325 -326 0
-325 -327 0
-326 -327 0
325 326 327 0
-328 -329 0
-328 -330 0
-329 -330 0
328 329 330 0
-331 -332 0
-331 -333 0
-332 -333 0
331 332 333 0
-334 -335 0
-334 -336 0
-335 -336 0
334 335 336 0
-337 -338 0
-337 -339 0
-338 -339 0
337 338 339 0
-340 -341 0
-340 -342 0
-341 -342 0
340 341 342 0
-343 -344 0
-343 -345 0
-344 -345 0
343 344 345 0
-346 -347 0
-346 -348 0
-347 -348 0
346 347 348 0
-349 -350 0
-349 -351 0
-350 -351 0
349 350 351 0
-352 -353 0
-352 -354 0
-353 -354 0
352 353 354 0
-355 -356 0
-355 -357 0
-356 -357 0
355 356 357 0
-358 -359 0
-358 -360 0
-359 -360 0
358 359 360 0
-361 -362 0
-361 -363 0
-362 -363 0
361 362 363 0
-364 -365 0
-364 -366 0
-365 -366 0
364 365 366 0
-367 -368 0
-367 -369 0
-368 -369 0
367 368 369 0
-370 -371 0
-370 -372 0
-371 -372 0
370 371 372 0
-373 -374 0
-373 -375 0
-374 -375 0
373 374 375 0
-376 -377 0
-376 -378 0
-377 -378 0
376 377 378 0
-379 -380 0
-379 -381 0
-380 -381 0
379 380 381 0
-382 -383 0
-382 -384 0
-383 -384 0
382 383 384 0
-385 -386 0
-385 -387 0
-386 -387 0
385 386 387 0
-388 -389 0
-388 -390 0
-389 -390 0
388 389 390 0
-391 -392 0
-391 -393 0
-392 -393 0
391 392 393 0
-394 -395 0
-394 -396 0
-395 -396 0
394 395 396 0
-397 -398 0
-397 -399 0
-398 -399 0
397 398 399 0
-400 -401 0
-400 -402 0
-401 -402 0
400 401 402 0
-403 -404 0
-403 -405 0
-404 -405 0
403 404 405 0
-406 -407 0
-406 -408 0
-407 -408 0
406 407 408 0
-409 -410 0
-409 -411 0
-410 -411 0
409 410 411 0
-412 -413 0
-412 -414 0
-413 -414 0
412 413 414 0
-415 -416 0
-415 -417 0
-416 -417 0
415 416 417 0
-418 -419 0
-418 -420 0
-419 -420 0
418 419 420 0
-421 -422 0
-421 -423 0
-422 -423 0
421 422 423 0
-424 -425 0
-424 -426 0
-425 -426 0
424 425 426 0
-427 -428 0
-427 -429 0
-428 -429 0
427 428 429 0
-430 -431 0
-430 -432 0
-431 -432 0
430 431 432 0
-433 -434 0
-433 -435 0
-434 -435 0
433 434 435 0
-436 -437 0
-436 -438 0
-437 -438 0
436 437 438 0
-439 -440 0
-439 -441 0
-440 -441 0
439 440 441 0
-442 -443 0
-442 -444 0
-443 -444 0
442 443 444 0
-445 -446 0
-445 -447 0
-446 -447 0
445 446 447 0
-448 -449 0
-448 -450 0
-449 -450 0
448 449 450 0
-451 -452 0
-451 -453 0
-452 -453 0
451 452 453 0
-454 -455 0
-454 -456 0
-455 -456 0
454 455 456 0
-457 -458 0
-457 -459 0
-458 -459 0
457 458 459 0
-460 -461 0
-460 -462 0
-461 -462 0
460 461 462 0
-463 -464 0
-463 -465 0
-464 -465 0
463 464 465 0
-466 -467 0
-466 -468 0
-467 -468 0
466 467 468 0
-469 -470 0
-469 -471 0
-470 -471 0
469 470 471 0
-472 -473 0
-472 -474 0
-473 -474 0
472 473 474 0
-475 -476 0
-475 -477 0
-476 -477 0
475 476 477 0
-478 -479 0
-478 -480 0
-479 -480 0
478 479 480 0
-481 -482 0
-481 -483 0
-482 -483 0
481 482 483 0
-484 -485 0
-484 -486 0
-485 -486 0
484 485 486 0
-487 -488 0
-487 -489 0
-488 -489 0
487 488 489 0
-490 -491 0
-490 -492 0
-491 -492 0
490 491 492 0
-493 -494 0
-493 -495 0
-494 -495 0
493 494 495 0
-496 -497 0
-496 -498 0
-497 -498 0
496 497 498 0
-499 -500 0
-499 -501 0
-500 -501 0
499 500 501 0
-502 -503 0
-502 -504 0
-503 -504 0
502 503 504 0
-505 -506 0
-505 -507 0
-506 -507 0
505 506 507 0
-508 -509 0
-508 -510 0
-509 -510 0
508 509 510 0
-511 -512 0
-511 -513 0
-512 -513 0
511 512 513 0
-514 -515 0
-514 -516 0
-515 -516 0
514 515 516 0
-517 -518 0
-517 -519 0
-518 -519 0
517 518 519 0
-520 -521 0
-520 -522 0
-521 -522 0
520 521 522 0
-523 -524 0
-523 -525 0
-524 -525 0
523 524 525 0
-526 -527 0
-526 -528 0
-527 -528 0
526 527 528 0
-529 -530 0
-529 -531 0
-530 -531 0
529 530 531 0
-532 -533 0
-532 -534 0
-533 -534 0
532 533 534 0
-535 -536 0
-535 -537 0
-536 -537 0
535 536 537 0
-538 -539 0
-538 -540 0
-539 -540 0
538 539 540 0
-541 -542 0
-541 -543 0
-542 -543 0
541 542 543 0
-544 -545 0
-544 -546 0
-545 -546 0
544 545 546 0
-547 -548 0
-547 -549 0
-548 -549 0
547 548 549 0
-550 -551 0
-550 -552 0
-551 -552 0
550 551 552 0
-553 -554 0
-553 -555 0
-554 -555 0
553 554 555 0
-556 -557 0
-556 -558 0
-557 -558 0
556 557 558 0
-559 -560 0
-559 -561 0
-560 -561 0
559 560 561 0
-562 -563 0
-562 -564 0
-563 -564 0
562 563 564 0
-565 -566 0
-565 -567 0
-566 -567 0
565 566 567 0
-568 -569 0
-568 -570 0
-569 -570 0
568 569 570 0
-571 -572 0
-571 -573 0
-572 -573 0
571 572 573 0
-574 -575 0
-574 -576 0
-575 -576 0
574 575 576 0
-577 -578 0
-577 -579 0
-578 -579 0
577 578 579 0
-580 -581 0
-580 -582 0
-581 -582 0
580 581 582 0
-583 -584 0
-583 -585 0
-584 -585 0
583 584 585 0
-586 -587 0
-586 -588 0
-587 -588 0
586 587 588 0
-589 -590 0
-589 -591 0
-590 -591 0
589 590 591 0
-592 -593 0
-592 -594 0
-593 -594 0
592 593 594 0
-595 -596 0
-595 -597 0
-596 -597 0
595 596 597 0
-598 -599 0
-598 -600 0
-599 -600 0
598 599 600 0
-43 -1 0
-44 -2 0
-45 -3 0
-55 -1 0
-56 -2 0
-57 -3 0
-166 -1 0
-167 -2 0
-168 -3 0
-283 -1 0
-284 -2 0
-285 -3 0
-448 -1 0
-449 -2 0
-450 -3 0
-73 -4 0
-74 -5 0
-75 -6 0
-259 -4 0
-260 -5 0
-261 -6 0
-442 -4 0
-443 -5 0
-444 -6 0
-544 -4 0
-545 -5 0
-546 -6 0
-28 -7 0
-29 -8 0
-30 -9 0
-70 -7 0
-71 -8 0
-72 -9 0
-91 -7 0
-92 -8 0
-93 -9 0
-238 -7 0
-239 -8 0
-240 -9 0
-316 -7 0
-317 -8 0
-318 -9 0
-517 -7 0
-518 -8 0
-519 -9 0
-520 -7 0
-521 -8 0
-522 -9 0
-13 -10 0
-14 -11 0
-15 -12 0
-214 -10 0
-215 -11 0
-216 -12 0
-295 -10 0
-296 -11 0
-297 -12 0
-379 -10 0
-380 -11 0
-381 -12 0
-571 -10 0
-572 -11 0
-573 -12 0
-124 -13 0
-125 -14 0
-126 -15 0
-166 -13 0
-167 -14 0
-168 -15 0
-595 -13 0
-596 -14 0
-597 -15 0
-145 -16 0
-146 -17 0
-147 -18 0
-322 -16 0
-323 -17 0
-324 -18 0
-376 -16 0
-377 -17 0
-378 -18 0
-430 -16 0
-431 -17 0
-432 -18 0
-532 -16 0
-533 -17 0
-534 -18 0
-163 -19 0
-164 -20 0
-165 -21 0
-217 -19 0
-218 -20 0
-219 -21 0
-253 -19 0
-254 -20 0
-255 -21 0
-406 -19 0
-407 -20 0
-408 -21 0
-529 -19 0
-530 -20 0
-531 -21 0
-70 -22 0
-71 -23 0
-72 -24 0
-145 -22 0
-146 -23 0
-147 -24 0
-505 -22 0
-506 -23 0
-507 -24 0
-238 -25 0
-239 -26 0
-240 -27 0
-541 -25 0
-542 -26 0
-543 -27 0
-199 -28 0
-200 -29 0
-201 -30 0
-304 -28 0
-305 -29 0
-306 -30 0
-451 -28 0
-452 -29 0
-453 -30 0
-460 -28 0
-461 -29 0
-462 -30 0
-472 -28 0
-473 -29 0
-474 -30 0
-136 -31 0
-137 -32 0
-138 -33 0
-157 -31 0
-158 -32 0
-159 -33 0
-331 -31 0
-332 -32 0
-333 -33 0
-400 -31 0
-401 -32 0
-402 -33 0
-424 -31 0
-425 -32 0
-426 -33 0
-514 -31 0
-515 -32 0
-516 -33 0
-541 -31 0
-542 -32 0
-543 -33 0
-193 -34 0
-194 -35 0
-195 -36 0
-214 -34 0
-215 -35 0
-216 -36 0
-292 -34 0
-293 -35 0
-294 -36 0
-523 -34 0
-524 -35 0
-525 -36 0
-595 -34 0
-596 -35 0
-597 -36 0
-256 -37 0
-257 -38 0
-258 -39 0
-487 -37 0
-488 -38 0
-489 -39 0
-79 -40 0
-80 -41 0
-81 -42 0
-94 -40 0
-95 -41 0
-96 -42 0
-241 -40 0
-242 -41 0
-243 -42 0
-328 -40 0
-329 -41 0
-330 -42 0
-409 -40 0
-410 -41 0
-411 -42 0
-466 -40 0
-467 -41 0
-468 -42 0
-583 -40 0
-584 -41 0
-585 -42 0
-103 -43 0
-104 -44 0
-105 -45 0
-118 -43 0
-119 -44 0
-120 -45 0
-139 -43 0
-140 -44 0
-141 -45 0
-280 -43 0
-281 -44 0
-282 -45 0
-406 -43 0
-407 -44 0
-408 -45 0
-436 -43 0
-437 -44 0
-438 -45 0
-67 -46 0
-68 -47 0
-69 -48 0
-166 -46 0
-167 -47 0
-168 -48 0
-181 -46 0
-182 -47 0
-183 -48 0
-193 -46 0
-194 -47 0
-195 -48 0
-325 -46 0
-326 -47 0
-327 -48 0
-370 -46 0
-371 -47 0
-372 -48 0
-502 -46 0
-503 -47 0
-504 -48 0
-145 -49 0
-146 -50 0
-147 -51 0
-184 -49 0
-185 -50 0
-186 -51 0
-190 -49 0
-191 -50 0
-192 -51 0
-385 -49 0
-386 -50 0
-387 -51 0
-454 -49 0
-455 -50 0
-456 -51 0
-85 -52 0
-86 -53 0
-87 -54 0
-175 -52 0
-176 -53 0
-177 -54 0
-247 -52 0
-248 -53 0
-249 -54 0
-487 -52 0
-488 -53 0
-489 -54 0
-526 -52 0
-527 -53 0
-528 -54 0
-568 -52 0
-569 -53 0
-570 -54 0
-226 -58 0
-227 -59 0
-228 -60 0
-283 -58 0
-284 -59 0
-285 -60 0
-316 -58 0
-317 -59 0
-318 -60 0
-121 -61 0
-122 -62 0
-123 -63 0
-346 -61 0
-347 -62 0
-348 -63 0
-457 -61 0
-458 -62 0
-459 -63 0
-535 -61 0
-536 -62 0
-537 -63 0
-94 -64 0
-95 -65 0
-96 -66 0
-136 -64 0
-137 -65 0
-138 -66 0
-292 -64 0
-293 -65 0
-294 -66 0
-538 -64 0
-539 -65 0
-540 -66 0
-565 -64 0
-566 -65 0
-567 -66 0
-139 -67 0
-140 -68 0
-141 -69 0
-358 -67 0
-359 -68 0
-360 -69 0
-577 -67 0
-578 -68 0
-579 -69 0
-85 -70 0
-86 -71 0
-87 -72 0
-337 -70 0
-338 -71 0
-339 -72 0
-403 -70 0
-404 -71 0
-405 -72 0
-514 -70 0
-515 -71 0
-516 -72 0
-595 -70 0
-596 -71 0
-597 -72 0
-94 -73 0
-95 -74 0
-96 -75 0
-133 -73 0
-134 -74 0
-135 -75 0
-391 -73 0
-392 -74 0
-393 -75 0
-409 -73 0
-410 -74 0
-411 -75 0
-439 -73 0
-440 -74 0
-441 -75 0
-535 -73 0
-536 -74 0
-537 -75 0
-109 -76 0
-110 -77 0
-111 -78 0
-289 -76 0
-290 -77 0
-291 -78 0
-313 -76 0
-314 -77 0
-315 -78 0
-355 -76 0
-356 -77 0
-357 -78 0
-526 -76 0
-527 -77 0
-528 -78 0
-460 -79 0
-461 -80 0
-462 -81 0
-175 -82 0
-176 -83 0
-177 -84 0
-349 -82 0
-350 -83 0
-351 -84 0
-490 -82 0
-491 -83 0
-492 -84 0
-91 -85 0
-92 -86 0
-93 -87 0
-430 -85 0
-431 -86 0
-432 -87 0
-481 -85 0
-482 -86 0
-483 -87 0
-493 -85 0
-494 -86 0
-495 -87 0
-571 -85 0
-572 -86 0
-573 -87 0
-124 -88 0
-125 -89 0
-126 -90 0
-169 -88 0
-170 -89 0
-171 -90 0
-244 -88 0
-245 -89 0
-246 -90 0
-274 -88 0
-275 -89 0
-276 -90 0
-517 -88 0
-518 -89 0
-519 -90 0
-541 -88 0
-542 -89 0
-543 -90 0
-139 -91 0
-140 -92 0
-141 -93 0
-226 -91 0
-227 -92 0
-228 -93 0
-259 -91 0
-260 -92 0
-261 -93 0
-370 -91 0
-371 -92 0
-372 -93 0
-379 -91 0
-380 -92 0
-381 -93 0
-229 -94 0
-230 -95 0
-231 -96 0
-235 -94 0
-236 -95 0
-237 -96 0
-256 -94 0
-257 -95 0
-258 -96 0
-418 -94 0
-419 -95 0
-420 -96 0
-556 -94 0
-557 -95 0
-558 -96 0
-100 -97 0
-101 -98 0
-102 -99 0
-232 -97 0
-233 -98 0
-234 -99 0
-469 -97 0
-470 -98 0
-471 -99 0
-217 -100 0
-218 -101 0
-219 -102 0
-244 -100 0
-245 -101 0
-246 -102 0
-301 -100 0
-302 -101 0
-303 -102 0
-397 -100 0
-398 -101 0
-399 -102 0
-586 -100 0
-587 -101 0
-588 -102 0
-202 -103 0
-203 -104 0
-204 -105 0
-538 -103 0
-539 -104 0
-540 -105 0
-553 -103 0
-554 -104 0
-555 -105 0
-214 -106 0
-215 -107 0
-216 -108 0
-232 -106 0
-233 -107 0
-234 -108 0
-388 -106 0
-389 -107 0
-390 -108 0
-484 -106 0
-485 -107 0
-486 -108 0
-544 -106 0
-545 -107 0
-546 -108 0
-115 -109 0
-116 -110 0
-117 -111 0
-205 -109 0
-206 -110 0
-207 -111 0
-211 -109 0
-212 -110 0
-213 -111 0
-361 -109 0
-362 -110 0
-363 -111 0
-394 -109 0
-395 -110 0
-396 -111 0
-418 -109 0
-419 -110 0
-420 -111 0
-511 -109 0
-512 -110 0
-513 -111 0
-166 -112 0
-167 -113 0
-168 -114 0
-226 -112 0
-227 -113 0
-228 -114 0
-346 -112 0
-347 -113 0
-348 -114 0
-457 -112 0
-458 -113 0
-459 -114 0
-598 -112 0
-599 -113 0
-600 -114 0
-187 -115 0
-188 -116 0
-189 -117 0
-271 -115 0
-272 -116 0
-273 -117 0
-292 -115 0
-293 -116 0
-294 -117 0
-316 -115 0
-317 -116 0
-318 -117 0
-592 -115 0
-593 -116 0
-594 -117 0
-190 -118 0
-191 -119 0
-192 -120 0
-343 -118 0
-344 -119 0
-345 -120 0
-253 -121 0
-254 -122 0
-255 -123 0
-490 -121 0
-491 -122 0
-492 -123 0
-247 -124 0
-248 -125 0
-249 -126 0
-253 -124 0
-254 -125 0
-255 -126 0
-364 -124 0
-365 -125 0
-366 -126 0
-439 -124 0
-440 -125 0
-441 -126 0
-538 -124 0
-539 -125 0
-540 -126 0
-571 -124 0
-572 -125 0
-573 -126 0
-187 -127 0
-188 -128 0
-189 -129 0
-427 -127 0
-428 -128 0
-429 -129 0
-478 -127 0
-479 -128 0
-480 -129 0
-487 -127 0
-488 -128 0
-489 -129 0
-199 -130 0
-200 -131 0
-201 -132 0
-184 -133 0
-185 -134 0
-186 -135 0
-214 -133 0
-215 -134 0
-216 -135 0
-445 -133 0
-446 -134 0
-447 -135 0
-511 -133 0
-512 -134 0
-513 -135 0
-421 -136 0
-422 -137 0
-423 -138 0
-454 -136 0
-455 -137 0
-456 -138 0
-169 -139 0
-170 -140 0
-171 -141 0
-466 -139 0
-467 -140 0
-468 -141 0
-310 -142 0
-311 -143 0
-312 -144 0
-430 -142 0
-431 -143 0
-432 -144 0
-487 -142 0
-488 -143 0
-489 -144 0
-151 -145 0
-152 -146 0
-153 -147 0
-163 -145 0
-164 -146 0
-165 -147 0
-241 -145 0
-242 -146 0
-243 -147 0
-388 -145 0
-389 -146 0
-390 -147 0
-484 -145 0
-485 -146 0
-486 -147 0
-238 -148 0
-239 -149 0
-240 -150 0
-283 -148 0
-284 -149 0
-285 -150 0
-331 -148 0
-332 -149 0
-333 -150 0
-364 -148 0
-365 -149 0
-366 -150 0
-382 -148 0
-383 -149 0
-384 -150 0
-406 -148 0
-407 -149 0
-408 -150 0
-427 -148 0
-428 -149 0
-429 -150 0
-184 -151 0
-185 -152 0
-186 -153 0
-229 -151 0
-230 -152 0
-231 -153 0
-259 -151 0
-260 -152 0
-261 -153 0
-511 -151 0
-512 -152 0
-513 -153 0
-259 -154 0
-260 -155 0
-261 -156 0
-292 -154 0
-293 -155 0
-294 -156 0
-385 -154 0
-386 -155 0
-387 -156 0
-445 -154 0
-446 -155 0
-447 -156 0
-493 -154 0
-494 -155 0
-495 -156 0
-262 -157 0
-263 -158 0
-264 -159 0
-424 -157 0
-425 -158 0
-426 -159 0
-463 -157 0
-464 -158 0
-465 -159 0
-250 -160 0
-251 -161 0
-252 -162 0
-472 -160 0
-473 -161 0
-474 -162 0
-484 -160 0
-485 -161 0
-486 -162 0
-538 -160 0
-539 -161 0
-540 -162 0
-595 -160 0
-596 -161 0
-597 -162 0
-295 -163 0
-296 -164 0
-297 -165 0
-409 -163 0
-410 -164 0
-411 -165 0
-433 -163 0
-434 -164 0
-435 -165 0
-520 -163 0
-521 -164 0
-522 -165 0
-526 -163 0
-527 -164 0
-528 -165 0
-226 -166 0
-227 -167 0
-228 -168 0
-442 -166 0
-443 -167 0
-444 -168 0
-499 -166 0
-500 -167 0
-501 -168 0
-196 -169 0
-197 -170 0
-198 -171 0
-340 -169 0
-341 -170 0
-342 -171 0
-535 -172 0
-536 -173 0
-537 -174 0
-562 -172 0
-563 -173 0
-564 -174 0
-313 -175 0
-314 -176 0
-315 -177 0
-442 -175 0
-443 -176 0
-444 -177 0
-532 -175 0
-533 -176 0
-534 -177 0
-544 -175 0
-545 -176 0
-546 -177 0
-376 -178 0
-377 -179 0
-378 -180 0
-394 -178 0
-395 -179 0
-396 -180 0
-535 -178 0
-536 -179 0
-537 -180 0
-583 -178 0
-584 -179 0
-585 -180 0
-250 -181 0
-251 -182 0
-252 -183 0
-313 -181 0
-314 -182 0
-315 -183 0
-433 -181 0
-434 -182 0
-435 -183 0
-481 -181 0
-482 -182 0
-483 -183 0
-520 -181 0
-521 -182 0
-522 -183 0
-574 -181 0
-575 -182 0
-576 -183 0
-343 -184 0
-344 -185 0
-345 -186 0
-373 -184 0
-374 -185 0
-375 -186 0
-406 -184 0
-407 -185 0
-408 -186 0
-544 -184 0
-545 -185 0
-546 -186 0
-262 -187 0
-263 -188 0
-264 -189 0
-229 -190 0
-230 -191 0
-231 -192 0
-304 -190 0
-305 -191 0
-306 -192 0
-322 -190 0
-323 -191 0
-324 -192 0
-457 -190 0
-458 -191 0
-459 -192 0
-250 -193 0
-251 -194 0
-252 -195 0
-334 -193 0
-335 -194 0
-336 -195 0
-340 -193 0
-341 -194 0
-342 -195 0
-397 -193 0
-398 -194 0
-399 -195 0
-451 -193 0
-452 -194 0
-453 -195 0
-454 -193 0
-455 -194 0
-456 -195 0
-265 -196 0
-266 -197 0
-267 -198 0
-343 -196 0
-344 -197 0
-345 -198 0
-490 -196 0
-491 -197 0
-492 -198 0
-283 -199 0
-284 -200 0
-285 -201 0
-316 -199 0
-317 -200 0
-318 -201 0
-430 -199 0
-431 -200 0
-432 -201 0
-262 -202 0
-263 -203 0
-264 -204 0
-454 -202 0
-455 -203 0
-456 -204 0
-496 -202 0
-497 -203 0
-498 -204 0
-424 -205 0
-425 -206 0
-426 -207 0
-496 -205 0
-497 -206 0
-498 -207 0
-286 -208 0
-287 -209 0
-288 -210 0
-565 -208 0
-566 -209 0
-567 -210 0
-289 -211 0
-290 -212 0
-291 -213 0
-346 -211 0
-347 -212 0
-348 -213 0
-364 -211 0
-365 -212 0
-366 -213 0
-493 -211 0
-494 -212 0
-495 -213 0
-298 -214 0
-299 -215 0
-300 -216 0
-457 -214 0
-458 -215 0
-459 -216 0
-583 -214 0
-584 -215 0
-585 -216 0
-388 -217 0
-389 -218 0
-390 -219 0
-541 -217 0
-542 -218 0
-543 -219 0
-307 -220 0
-308 -221 0
-309 -222 0
-403 -220 0
-404 -221 0
-405 -222 0
-451 -220 0
-452 -221 0
-453 -222 0
-463 -223 0
-464 -224 0
-465 -225 0
-517 -223 0
-518 -224 0
-519 -225 0
-577 -223 0
-578 -224 0
-579 -225 0
-295 -229 0
-296 -230 0
-297 -231 0
-373 -229 0
-374 -230 0
-375 -231 0
-496 -229 0
-497 -230 0
-498 -231 0
-520 -229 0
-521 -230 0
-522 -231 0
-583 -229 0
-584 -230 0
-585 -231 0
-496 -232 0
-497 -233 0
-498 -234 0
-250 -235 0
-251 -236 0
-252 -237 0
-307 -235 0
-308 -236 0
-309 -237 0
-439 -235 0
-440 -236 0
-441 -237 0
-247 -238 0
-248 -239 0
-249 -240 0
-523 -238 0
-524 -239 0
-525 -240 0
-592 -238 0
-593 -239 0
-594 -240 0
-256 -244 0
-257 -245 0
-258 -246 0
-265 -244 0
-266 -245 0
-267 -246 0
-448 -244 0
-449 -245 0
-450 -246 0
-562 -244 0
-563 -245 0
-564 -246 0
-331 -247 0
-332 -248 0
-333 -249 0
-505 -247 0
-506 -248 0
-507 -249 0
-322 -253 0
-323 -254 0
-324 -255 0
-481 -253 0
-482 -254 0
-483 -255 0
-499 -253 0
-500 -254 0
-501 -255 0
-370 -256 0
-371 -257 0
-372 -258 0
-454 -256 0
-455 -257 0
-456 -258 0
-532 -259 0
-533 -260 0
-534 -261 0
-268 -262 0
-269 -263 0
-270 -264 0
-421 -265 0
-422 -266 0
-423 -267 0
-433 -265 0
-434 -266 0
-435 -267 0
-502 -265 0
-503 -266 0
-504 -267 0
-565 -265 0
-566 -266 0
-567 -267 0
-445 -268 0
-446 -269 0
-447 -270 0
-556 -271 0
-557 -272 0
-558 -273 0
-538 -274 0
-539 -275 0
-540 -276 0
-556 -274 0
-557 -275 0
-558 -276 0
-520 -277 0
-521 -278 0
-522 -279 0
-568 -277 0
-569 -278 0
-570 -279 0
-571 -277 0
-572 -278 0
-573 -279 0
-334 -280 0
-335 -281 0
-336 -282 0
-361 -280 0
-362 -281 0
-363 -282 0
-442 -280 0
-443 -281 0
-444 -282 0
-445 -280 0
-446 -281 0
-447 -282 0
-598 -280 0
-599 -281 0
-600 -282 0
-301 -283 0
-302 -284 0
-303 -285 0
-463 -283 0
-464 -284 0
-465 -285 0
-565 -283 0
-566 -284 0
-567 -285 0
-322 -286 0
-323 -287 0
-324 -288 0
-346 -286 0
-347 -287 0
-348 -288 0
-418 -286 0
-419 -287 0
-420 -288 0
-487 -286 0
-488 -287 0
-489 -288 0
-526 -286 0
-527 -287 0
-528 -288 0
-544 -286 0
-545 -287 0
-546 -288 0
-394 -289 0
-395 -290 0
-396 -291 0
-481 -289 0
-482 -290 0
-483 -291 0
-400 -292 0
-401 -293 0
-402 -294 0
-448 -292 0
-449 -293 0
-450 -294 0
-352 -295 0
-353 -296 0
-354 -297 0
-427 -295 0
-428 -296 0
-429 -297 0
-400 -298 0
-401 -299 0
-402 -300 0
-403 -298 0
-404 -299 0
-405 -300 0
-313 -301 0
-314 -302 0
-315 -303 0
-421 -301 0
-422 -302 0
-423 -303 0
-460 -301 0
-461 -302 0
-462 -303 0
-586 -301 0
-587 -302 0
-588 -303 0
-352 -304 0
-353 -305 0
-354 -306 0
-358 -304 0
-359 -305 0
-360 -306 0
-394 -307 0
-395 -308 0
-396 -309 0
-466 -307 0
-467 -308 0
-468 -309 0
-535 -307 0
-536 -308 0
-537 -309 0
-370 -310 0
-371 -311 0
-372 -312 0
-550 -310 0
-551 -311 0
-552 -312 0
-589 -310 0
-590 -311 0
-591 -312 0
-334 -313 0
-335 -314 0
-336 -315 0
-448 -316 0
-449 -317 0
-450 -318 0
-361 -319 0
-362 -320 0
-363 -321 0
-496 -319 0
-497 -320 0
-498 -321 0
-556 -319 0
-557 -320 0
-558 -321 0
-337 -322 0
-338 -323 0
-339 -324 0
-412 -322 0
-413 -323 0
-414 -324 0
-370 -325 0
-371 -326 0
-372 -327 0
-376 -325 0
-377 -326 0
-378 -327 0
-466 -325 0
-467 -326 0
-468 -327 0
-559 -325 0
-560 -326 0
-561 -327 0
-334 -328 0
-335 -329 0
-336 -330 0
-460 -328 0
-461 -329 0
-462 -330 0
-475 -328 0
-476 -329 0
-477 -330 0
-583 -328 0
-584 -329 0
-585 -330 0
-529 -334 0
-530 -335 0
-531 -336 0
-460 -337 0
-461 -338 0
-462 -339 0
-469 -340 0
-470 -341 0
-471 -342 0
-598 -340 0
-599 -341 0
-600 -342 0
-568 -343 0
-569 -344 0
-570 -345 0
-487 -346 0
-488 -347 0
-489 -348 0
-490 -346 0
-491 -347 0
-492 -348 0
-538 -346 0
-539 -347 0
-540 -348 0
-373 -349 0
-374 -350 0
-375 -351 0
-400 -349 0
-401 -350 0
-402 -351 0
-481 -349 0
-482 -350 0
-483 -351 0
-448 -352 0
-449 -353 0
-450 -354 0
-529 -352 0
-530 -353 0
-531 -354 0
-598 -352 0
-599 -353 0
-600 -354 0
-436 -355 0
-437 -356 0
-438 -357 0
-496 -361 0
-497 -362 0
-498 -363 0
-472 -364 0
-473 -365 0
-474 -366 0
-577 -364 0
-578 -365 0
-579 -366 0
-373 -367 0
-374 -368 0
-375 -369 0
-505 -367 0
-506 -368 0
-507 -369 0
-505 -370 0
-506 -371 0
-507 -372 0
-562 -370 0
-563 -371 0
-564 -372 0
-424 -373 0
-425 -374 0
-426 -375 0
-436 -373 0
-437 -374 0
-438 -375 0
-382 -376 0
-383 -377 0
-384 -378 0
-403 -376 0
-404 -377 0
-405 -378 0
-439 -379 0
-440 -380 0
-441 -381 0
-445 -379 0
-446 -380 0
-447 -381 0
-499 -379 0
-500 -380 0
-501 -381 0
-589 -379 0
-590 -380 0
-591 -381 0
-493 -382 0
-494 -383 0
-495 -384 0
-511 -382 0
-512 -383 0
-513 -384 0
-541 -382 0
-542 -383 0
-543 -384 0
-475 -385 0
-476 -386 0
-477 -387 0
-397 -388 0
-398 -389 0
-399 -390 0
-442 -388 0
-443 -389 0
-444 -390 0
-493 -388 0
-494 -389 0
-495 -390 0
-514 -391 0
-515 -392 0
-516 -393 0
-550 -391 0
-551 -392 0
-552 -393 0
-577 -391 0
-578 -392 0
-579 -393 0
-526 -394 0
-527 -395 0
-528 -396 0
-502 -397 0
-503 -398 0
-504 -399 0
-589 -397 0
-590 -398 0
-591 -399 0
-460 -400 0
-461 -401 0
-462 -402 0
-517 -400 0
-518 -401 0
-519 -402 0
-544 -400 0
-545 -401 0
-546 -402 0
-430 -409 0
-431 -410 0
-432 -411 0
-574 -412 0
-575 -413 0
-576 -414 0
-523 -415 0
-524 -416 0
-525 -417 0
-439 -421 0
-440 -422 0
-441 -423 0
-460 -424 0
-461 -425 0
-462 -426 0
-505 -424 0
-506 -425 0
-507 -426 0
-550 -427 0
-551 -428 0
-552 -429 0
-511 -430 0
-512 -431 0
-513 -432 0
-442 -433 0
-443 -434 0
-444 -435 0
-556 -439 0
-557 -440 0
-558 -441 0
-538 -442 0
-539 -443 0
-540 -444 0
-454 -445 0
-455 -446 0
-456 -447 0
-562 -448 0
-563 -449 0
-564 -450 0
-586 -448 0
-587 -449 0
-588 -450 0
-550 -451 0
-551 -452 0
-552 -453 0
-493 -454 0
-494 -455 0
-495 -456 0
-544 -457 0
-545 -458 0
-546 -459 0
-517 -460 0
-518 -461 0
-519 -462 0
-472 -463 0
-473 -464 0
-474 -465 0
-472 -466 0
-473 -467 0
-474 -468 0
-550 -466 0
-551 -467 0
-552 -468 0
-499 -475 0
-500 -476 0
-501 -477 0
-523 -475 0
-524 -476 0
-525 -477 0
-592 -475 0
-593 -476 0
-594 -477 0
-523 -478 0
-524 -479 0
-525 -480 0
-559 -481 0
-560 -482 0
-561 -483 0
-499 -484 0
-500 -485 0
-501 -486 0
-553 -484 0
-554 -485 0
-555 -486 0
-565 -490 0
-566 -491 0
-567 -492 0
-505 -493 0
-506 -494 0
-507 -495 0
-547 -493 0
-548 -494 0
-549 -495 0
-583 -499 0
-584 -500 0
-585 -501 0
-586 -505 0
-587 -506 0
-588 -507 0
-532 -508 0
-533 -509 0
-534 -510 0
-544 -511 0
-545 -512 0
-546 -513 0
-556 -514 0
-557 -515 0
-558 -516 0
-592 -514 0
-593 -515 0
-594 -516 0
-547 -517 0
-548 -518 0
-549 -519 0
-595 -523 0
-596 -524 0
-597 -525 0
-538 -526 0
-539 -527 0
-540 -528 0
-595 -541 0
-596 -542 0
-597 -543 0
-586 -547 0
-587 -548 0
-588 -549 0
-592 -547 0
-593 -548 0
-594 -549 0
-595 -568 0
-596 -569 0
-597 -570 0
-583 -577 0
-584 -578 0
-585 -579 0
-589 -583 0
-590 -584 0
-591 -585 0
